(set-logic QF_LRA)
(declare-fun X0 () Real )
(declare-fun Y0 () Real )
(declare-fun X1 () Real )
(declare-fun Y1 () Real )
(declare-fun X2 () Real )
(declare-fun Y2 () Real )
(declare-fun X3 () Real )
(declare-fun Y3 () Real )
(declare-fun X4 () Real )
(declare-fun Y4 () Real )
(declare-fun X5 () Real )
(declare-fun Y5 () Real )
(declare-fun X6 () Real )
(declare-fun Y6 () Real )
(declare-fun X7 () Real )
(declare-fun Y7 () Real )
(declare-fun X8 () Real )
(declare-fun Y8 () Real )
(declare-fun X9 () Real )
(declare-fun Y9 () Real )
(declare-fun X10 () Real )
(declare-fun Y10 () Real )
(declare-fun X11 () Real )
(declare-fun Y11 () Real )
(declare-fun X12 () Real )
(declare-fun Y12 () Real )
(declare-fun X13 () Real )
(declare-fun Y13 () Real )
(declare-fun X14 () Real )
(declare-fun Y14 () Real )
(declare-fun X15 () Real )
(declare-fun Y15 () Real )
(declare-fun X16 () Real )
(declare-fun Y16 () Real )
(declare-fun X17 () Real )
(declare-fun Y17 () Real )
(declare-fun Z () Real )
(declare-fun k () Real )
(assert (let
(( $goal (>= Z k) ))
(let
((
$phi ( and 
( or ( <= ( + X0 21 ) X1 )  ( <= ( + X1 4 ) X0 )  ( <= ( + Y0 24 ) Y1 )  ( <= ( + Y1 77 ) Y0 )  )
( or ( <= ( + X0 21 ) X2 )  ( <= ( + X2 90 ) X0 )  ( <= ( + Y0 24 ) Y2 )  ( <= ( + Y2 44 ) Y0 )  )
( or ( <= ( + X0 21 ) X3 )  ( <= ( + X3 43 ) X0 )  ( <= ( + Y0 24 ) Y3 )  ( <= ( + Y3 6 ) Y0 )  )
( or ( <= ( + X0 21 ) X4 )  ( <= ( + X4 42 ) X0 )  ( <= ( + Y0 24 ) Y4 )  ( <= ( + Y4 7 ) Y0 )  )
( or ( <= ( + X0 21 ) X5 )  ( <= ( + X5 26 ) X0 )  ( <= ( + Y0 24 ) Y5 )  ( <= ( + Y5 13 ) Y0 )  )
( or ( <= ( + X0 21 ) X6 )  ( <= ( + X6 98 ) X0 )  ( <= ( + Y0 24 ) Y6 )  ( <= ( + Y6 34 ) Y0 )  )
( or ( <= ( + X0 21 ) X7 )  ( <= ( + X7 93 ) X0 )  ( <= ( + Y0 24 ) Y7 )  ( <= ( + Y7 7 ) Y0 )  )
( or ( <= ( + X0 21 ) X8 )  ( <= ( + X8 56 ) X0 )  ( <= ( + Y0 24 ) Y8 )  ( <= ( + Y8 53 ) Y0 )  )
( or ( <= ( + X0 21 ) X9 )  ( <= ( + X9 77 ) X0 )  ( <= ( + Y0 24 ) Y9 )  ( <= ( + Y9 91 ) Y0 )  )
( or ( <= ( + X0 21 ) X10 )  ( <= ( + X10 60 ) X0 )  ( <= ( + Y0 24 ) Y10 )  ( <= ( + Y10 61 ) Y0 )  )
( or ( <= ( + X0 21 ) X11 )  ( <= ( + X11 60 ) X0 )  ( <= ( + Y0 24 ) Y11 )  ( <= ( + Y11 53 ) Y0 )  )
( or ( <= ( + X0 21 ) X12 )  ( <= ( + X12 12 ) X0 )  ( <= ( + Y0 24 ) Y12 )  ( <= ( + Y12 74 ) Y0 )  )
( or ( <= ( + X0 21 ) X13 )  ( <= ( + X13 70 ) X0 )  ( <= ( + Y0 24 ) Y13 )  ( <= ( + Y13 33 ) Y0 )  )
( or ( <= ( + X0 21 ) X14 )  ( <= ( + X14 8 ) X0 )  ( <= ( + Y0 24 ) Y14 )  ( <= ( + Y14 56 ) Y0 )  )
( or ( <= ( + X0 21 ) X15 )  ( <= ( + X15 65 ) X0 )  ( <= ( + Y0 24 ) Y15 )  ( <= ( + Y15 15 ) Y0 )  )
( or ( <= ( + X0 21 ) X16 )  ( <= ( + X16 23 ) X0 )  ( <= ( + Y0 24 ) Y16 )  ( <= ( + Y16 27 ) Y0 )  )
( or ( <= ( + X0 21 ) X17 )  ( <= ( + X17 61 ) X0 )  ( <= ( + Y0 24 ) Y17 )  ( <= ( + Y17 97 ) Y0 )  )
( or ( <= ( + X1 4 ) X2 )  ( <= ( + X2 90 ) X1 )  ( <= ( + Y1 77 ) Y2 )  ( <= ( + Y2 44 ) Y1 )  )
( or ( <= ( + X1 4 ) X3 )  ( <= ( + X3 43 ) X1 )  ( <= ( + Y1 77 ) Y3 )  ( <= ( + Y3 6 ) Y1 )  )
( or ( <= ( + X1 4 ) X4 )  ( <= ( + X4 42 ) X1 )  ( <= ( + Y1 77 ) Y4 )  ( <= ( + Y4 7 ) Y1 )  )
( or ( <= ( + X1 4 ) X5 )  ( <= ( + X5 26 ) X1 )  ( <= ( + Y1 77 ) Y5 )  ( <= ( + Y5 13 ) Y1 )  )
( or ( <= ( + X1 4 ) X6 )  ( <= ( + X6 98 ) X1 )  ( <= ( + Y1 77 ) Y6 )  ( <= ( + Y6 34 ) Y1 )  )
( or ( <= ( + X1 4 ) X7 )  ( <= ( + X7 93 ) X1 )  ( <= ( + Y1 77 ) Y7 )  ( <= ( + Y7 7 ) Y1 )  )
( or ( <= ( + X1 4 ) X8 )  ( <= ( + X8 56 ) X1 )  ( <= ( + Y1 77 ) Y8 )  ( <= ( + Y8 53 ) Y1 )  )
( or ( <= ( + X1 4 ) X9 )  ( <= ( + X9 77 ) X1 )  ( <= ( + Y1 77 ) Y9 )  ( <= ( + Y9 91 ) Y1 )  )
( or ( <= ( + X1 4 ) X10 )  ( <= ( + X10 60 ) X1 )  ( <= ( + Y1 77 ) Y10 )  ( <= ( + Y10 61 ) Y1 )  )
( or ( <= ( + X1 4 ) X11 )  ( <= ( + X11 60 ) X1 )  ( <= ( + Y1 77 ) Y11 )  ( <= ( + Y11 53 ) Y1 )  )
( or ( <= ( + X1 4 ) X12 )  ( <= ( + X12 12 ) X1 )  ( <= ( + Y1 77 ) Y12 )  ( <= ( + Y12 74 ) Y1 )  )
( or ( <= ( + X1 4 ) X13 )  ( <= ( + X13 70 ) X1 )  ( <= ( + Y1 77 ) Y13 )  ( <= ( + Y13 33 ) Y1 )  )
( or ( <= ( + X1 4 ) X14 )  ( <= ( + X14 8 ) X1 )  ( <= ( + Y1 77 ) Y14 )  ( <= ( + Y14 56 ) Y1 )  )
( or ( <= ( + X1 4 ) X15 )  ( <= ( + X15 65 ) X1 )  ( <= ( + Y1 77 ) Y15 )  ( <= ( + Y15 15 ) Y1 )  )
( or ( <= ( + X1 4 ) X16 )  ( <= ( + X16 23 ) X1 )  ( <= ( + Y1 77 ) Y16 )  ( <= ( + Y16 27 ) Y1 )  )
( or ( <= ( + X1 4 ) X17 )  ( <= ( + X17 61 ) X1 )  ( <= ( + Y1 77 ) Y17 )  ( <= ( + Y17 97 ) Y1 )  )
( or ( <= ( + X2 90 ) X3 )  ( <= ( + X3 43 ) X2 )  ( <= ( + Y2 44 ) Y3 )  ( <= ( + Y3 6 ) Y2 )  )
( or ( <= ( + X2 90 ) X4 )  ( <= ( + X4 42 ) X2 )  ( <= ( + Y2 44 ) Y4 )  ( <= ( + Y4 7 ) Y2 )  )
( or ( <= ( + X2 90 ) X5 )  ( <= ( + X5 26 ) X2 )  ( <= ( + Y2 44 ) Y5 )  ( <= ( + Y5 13 ) Y2 )  )
( or ( <= ( + X2 90 ) X6 )  ( <= ( + X6 98 ) X2 )  ( <= ( + Y2 44 ) Y6 )  ( <= ( + Y6 34 ) Y2 )  )
( or ( <= ( + X2 90 ) X7 )  ( <= ( + X7 93 ) X2 )  ( <= ( + Y2 44 ) Y7 )  ( <= ( + Y7 7 ) Y2 )  )
( or ( <= ( + X2 90 ) X8 )  ( <= ( + X8 56 ) X2 )  ( <= ( + Y2 44 ) Y8 )  ( <= ( + Y8 53 ) Y2 )  )
( or ( <= ( + X2 90 ) X9 )  ( <= ( + X9 77 ) X2 )  ( <= ( + Y2 44 ) Y9 )  ( <= ( + Y9 91 ) Y2 )  )
( or ( <= ( + X2 90 ) X10 )  ( <= ( + X10 60 ) X2 )  ( <= ( + Y2 44 ) Y10 )  ( <= ( + Y10 61 ) Y2 )  )
( or ( <= ( + X2 90 ) X11 )  ( <= ( + X11 60 ) X2 )  ( <= ( + Y2 44 ) Y11 )  ( <= ( + Y11 53 ) Y2 )  )
( or ( <= ( + X2 90 ) X12 )  ( <= ( + X12 12 ) X2 )  ( <= ( + Y2 44 ) Y12 )  ( <= ( + Y12 74 ) Y2 )  )
( or ( <= ( + X2 90 ) X13 )  ( <= ( + X13 70 ) X2 )  ( <= ( + Y2 44 ) Y13 )  ( <= ( + Y13 33 ) Y2 )  )
( or ( <= ( + X2 90 ) X14 )  ( <= ( + X14 8 ) X2 )  ( <= ( + Y2 44 ) Y14 )  ( <= ( + Y14 56 ) Y2 )  )
( or ( <= ( + X2 90 ) X15 )  ( <= ( + X15 65 ) X2 )  ( <= ( + Y2 44 ) Y15 )  ( <= ( + Y15 15 ) Y2 )  )
( or ( <= ( + X2 90 ) X16 )  ( <= ( + X16 23 ) X2 )  ( <= ( + Y2 44 ) Y16 )  ( <= ( + Y16 27 ) Y2 )  )
( or ( <= ( + X2 90 ) X17 )  ( <= ( + X17 61 ) X2 )  ( <= ( + Y2 44 ) Y17 )  ( <= ( + Y17 97 ) Y2 )  )
( or ( <= ( + X3 43 ) X4 )  ( <= ( + X4 42 ) X3 )  ( <= ( + Y3 6 ) Y4 )  ( <= ( + Y4 7 ) Y3 )  )
( or ( <= ( + X3 43 ) X5 )  ( <= ( + X5 26 ) X3 )  ( <= ( + Y3 6 ) Y5 )  ( <= ( + Y5 13 ) Y3 )  )
( or ( <= ( + X3 43 ) X6 )  ( <= ( + X6 98 ) X3 )  ( <= ( + Y3 6 ) Y6 )  ( <= ( + Y6 34 ) Y3 )  )
( or ( <= ( + X3 43 ) X7 )  ( <= ( + X7 93 ) X3 )  ( <= ( + Y3 6 ) Y7 )  ( <= ( + Y7 7 ) Y3 )  )
( or ( <= ( + X3 43 ) X8 )  ( <= ( + X8 56 ) X3 )  ( <= ( + Y3 6 ) Y8 )  ( <= ( + Y8 53 ) Y3 )  )
( or ( <= ( + X3 43 ) X9 )  ( <= ( + X9 77 ) X3 )  ( <= ( + Y3 6 ) Y9 )  ( <= ( + Y9 91 ) Y3 )  )
( or ( <= ( + X3 43 ) X10 )  ( <= ( + X10 60 ) X3 )  ( <= ( + Y3 6 ) Y10 )  ( <= ( + Y10 61 ) Y3 )  )
( or ( <= ( + X3 43 ) X11 )  ( <= ( + X11 60 ) X3 )  ( <= ( + Y3 6 ) Y11 )  ( <= ( + Y11 53 ) Y3 )  )
( or ( <= ( + X3 43 ) X12 )  ( <= ( + X12 12 ) X3 )  ( <= ( + Y3 6 ) Y12 )  ( <= ( + Y12 74 ) Y3 )  )
( or ( <= ( + X3 43 ) X13 )  ( <= ( + X13 70 ) X3 )  ( <= ( + Y3 6 ) Y13 )  ( <= ( + Y13 33 ) Y3 )  )
( or ( <= ( + X3 43 ) X14 )  ( <= ( + X14 8 ) X3 )  ( <= ( + Y3 6 ) Y14 )  ( <= ( + Y14 56 ) Y3 )  )
( or ( <= ( + X3 43 ) X15 )  ( <= ( + X15 65 ) X3 )  ( <= ( + Y3 6 ) Y15 )  ( <= ( + Y15 15 ) Y3 )  )
( or ( <= ( + X3 43 ) X16 )  ( <= ( + X16 23 ) X3 )  ( <= ( + Y3 6 ) Y16 )  ( <= ( + Y16 27 ) Y3 )  )
( or ( <= ( + X3 43 ) X17 )  ( <= ( + X17 61 ) X3 )  ( <= ( + Y3 6 ) Y17 )  ( <= ( + Y17 97 ) Y3 )  )
( or ( <= ( + X4 42 ) X5 )  ( <= ( + X5 26 ) X4 )  ( <= ( + Y4 7 ) Y5 )  ( <= ( + Y5 13 ) Y4 )  )
( or ( <= ( + X4 42 ) X6 )  ( <= ( + X6 98 ) X4 )  ( <= ( + Y4 7 ) Y6 )  ( <= ( + Y6 34 ) Y4 )  )
( or ( <= ( + X4 42 ) X7 )  ( <= ( + X7 93 ) X4 )  ( <= ( + Y4 7 ) Y7 )  ( <= ( + Y7 7 ) Y4 )  )
( or ( <= ( + X4 42 ) X8 )  ( <= ( + X8 56 ) X4 )  ( <= ( + Y4 7 ) Y8 )  ( <= ( + Y8 53 ) Y4 )  )
( or ( <= ( + X4 42 ) X9 )  ( <= ( + X9 77 ) X4 )  ( <= ( + Y4 7 ) Y9 )  ( <= ( + Y9 91 ) Y4 )  )
( or ( <= ( + X4 42 ) X10 )  ( <= ( + X10 60 ) X4 )  ( <= ( + Y4 7 ) Y10 )  ( <= ( + Y10 61 ) Y4 )  )
( or ( <= ( + X4 42 ) X11 )  ( <= ( + X11 60 ) X4 )  ( <= ( + Y4 7 ) Y11 )  ( <= ( + Y11 53 ) Y4 )  )
( or ( <= ( + X4 42 ) X12 )  ( <= ( + X12 12 ) X4 )  ( <= ( + Y4 7 ) Y12 )  ( <= ( + Y12 74 ) Y4 )  )
( or ( <= ( + X4 42 ) X13 )  ( <= ( + X13 70 ) X4 )  ( <= ( + Y4 7 ) Y13 )  ( <= ( + Y13 33 ) Y4 )  )
( or ( <= ( + X4 42 ) X14 )  ( <= ( + X14 8 ) X4 )  ( <= ( + Y4 7 ) Y14 )  ( <= ( + Y14 56 ) Y4 )  )
( or ( <= ( + X4 42 ) X15 )  ( <= ( + X15 65 ) X4 )  ( <= ( + Y4 7 ) Y15 )  ( <= ( + Y15 15 ) Y4 )  )
( or ( <= ( + X4 42 ) X16 )  ( <= ( + X16 23 ) X4 )  ( <= ( + Y4 7 ) Y16 )  ( <= ( + Y16 27 ) Y4 )  )
( or ( <= ( + X4 42 ) X17 )  ( <= ( + X17 61 ) X4 )  ( <= ( + Y4 7 ) Y17 )  ( <= ( + Y17 97 ) Y4 )  )
( or ( <= ( + X5 26 ) X6 )  ( <= ( + X6 98 ) X5 )  ( <= ( + Y5 13 ) Y6 )  ( <= ( + Y6 34 ) Y5 )  )
( or ( <= ( + X5 26 ) X7 )  ( <= ( + X7 93 ) X5 )  ( <= ( + Y5 13 ) Y7 )  ( <= ( + Y7 7 ) Y5 )  )
( or ( <= ( + X5 26 ) X8 )  ( <= ( + X8 56 ) X5 )  ( <= ( + Y5 13 ) Y8 )  ( <= ( + Y8 53 ) Y5 )  )
( or ( <= ( + X5 26 ) X9 )  ( <= ( + X9 77 ) X5 )  ( <= ( + Y5 13 ) Y9 )  ( <= ( + Y9 91 ) Y5 )  )
( or ( <= ( + X5 26 ) X10 )  ( <= ( + X10 60 ) X5 )  ( <= ( + Y5 13 ) Y10 )  ( <= ( + Y10 61 ) Y5 )  )
( or ( <= ( + X5 26 ) X11 )  ( <= ( + X11 60 ) X5 )  ( <= ( + Y5 13 ) Y11 )  ( <= ( + Y11 53 ) Y5 )  )
( or ( <= ( + X5 26 ) X12 )  ( <= ( + X12 12 ) X5 )  ( <= ( + Y5 13 ) Y12 )  ( <= ( + Y12 74 ) Y5 )  )
( or ( <= ( + X5 26 ) X13 )  ( <= ( + X13 70 ) X5 )  ( <= ( + Y5 13 ) Y13 )  ( <= ( + Y13 33 ) Y5 )  )
( or ( <= ( + X5 26 ) X14 )  ( <= ( + X14 8 ) X5 )  ( <= ( + Y5 13 ) Y14 )  ( <= ( + Y14 56 ) Y5 )  )
( or ( <= ( + X5 26 ) X15 )  ( <= ( + X15 65 ) X5 )  ( <= ( + Y5 13 ) Y15 )  ( <= ( + Y15 15 ) Y5 )  )
( or ( <= ( + X5 26 ) X16 )  ( <= ( + X16 23 ) X5 )  ( <= ( + Y5 13 ) Y16 )  ( <= ( + Y16 27 ) Y5 )  )
( or ( <= ( + X5 26 ) X17 )  ( <= ( + X17 61 ) X5 )  ( <= ( + Y5 13 ) Y17 )  ( <= ( + Y17 97 ) Y5 )  )
( or ( <= ( + X6 98 ) X7 )  ( <= ( + X7 93 ) X6 )  ( <= ( + Y6 34 ) Y7 )  ( <= ( + Y7 7 ) Y6 )  )
( or ( <= ( + X6 98 ) X8 )  ( <= ( + X8 56 ) X6 )  ( <= ( + Y6 34 ) Y8 )  ( <= ( + Y8 53 ) Y6 )  )
( or ( <= ( + X6 98 ) X9 )  ( <= ( + X9 77 ) X6 )  ( <= ( + Y6 34 ) Y9 )  ( <= ( + Y9 91 ) Y6 )  )
( or ( <= ( + X6 98 ) X10 )  ( <= ( + X10 60 ) X6 )  ( <= ( + Y6 34 ) Y10 )  ( <= ( + Y10 61 ) Y6 )  )
( or ( <= ( + X6 98 ) X11 )  ( <= ( + X11 60 ) X6 )  ( <= ( + Y6 34 ) Y11 )  ( <= ( + Y11 53 ) Y6 )  )
( or ( <= ( + X6 98 ) X12 )  ( <= ( + X12 12 ) X6 )  ( <= ( + Y6 34 ) Y12 )  ( <= ( + Y12 74 ) Y6 )  )
( or ( <= ( + X6 98 ) X13 )  ( <= ( + X13 70 ) X6 )  ( <= ( + Y6 34 ) Y13 )  ( <= ( + Y13 33 ) Y6 )  )
( or ( <= ( + X6 98 ) X14 )  ( <= ( + X14 8 ) X6 )  ( <= ( + Y6 34 ) Y14 )  ( <= ( + Y14 56 ) Y6 )  )
( or ( <= ( + X6 98 ) X15 )  ( <= ( + X15 65 ) X6 )  ( <= ( + Y6 34 ) Y15 )  ( <= ( + Y15 15 ) Y6 )  )
( or ( <= ( + X6 98 ) X16 )  ( <= ( + X16 23 ) X6 )  ( <= ( + Y6 34 ) Y16 )  ( <= ( + Y16 27 ) Y6 )  )
( or ( <= ( + X6 98 ) X17 )  ( <= ( + X17 61 ) X6 )  ( <= ( + Y6 34 ) Y17 )  ( <= ( + Y17 97 ) Y6 )  )
( or ( <= ( + X7 93 ) X8 )  ( <= ( + X8 56 ) X7 )  ( <= ( + Y7 7 ) Y8 )  ( <= ( + Y8 53 ) Y7 )  )
( or ( <= ( + X7 93 ) X9 )  ( <= ( + X9 77 ) X7 )  ( <= ( + Y7 7 ) Y9 )  ( <= ( + Y9 91 ) Y7 )  )
( or ( <= ( + X7 93 ) X10 )  ( <= ( + X10 60 ) X7 )  ( <= ( + Y7 7 ) Y10 )  ( <= ( + Y10 61 ) Y7 )  )
( or ( <= ( + X7 93 ) X11 )  ( <= ( + X11 60 ) X7 )  ( <= ( + Y7 7 ) Y11 )  ( <= ( + Y11 53 ) Y7 )  )
( or ( <= ( + X7 93 ) X12 )  ( <= ( + X12 12 ) X7 )  ( <= ( + Y7 7 ) Y12 )  ( <= ( + Y12 74 ) Y7 )  )
( or ( <= ( + X7 93 ) X13 )  ( <= ( + X13 70 ) X7 )  ( <= ( + Y7 7 ) Y13 )  ( <= ( + Y13 33 ) Y7 )  )
( or ( <= ( + X7 93 ) X14 )  ( <= ( + X14 8 ) X7 )  ( <= ( + Y7 7 ) Y14 )  ( <= ( + Y14 56 ) Y7 )  )
( or ( <= ( + X7 93 ) X15 )  ( <= ( + X15 65 ) X7 )  ( <= ( + Y7 7 ) Y15 )  ( <= ( + Y15 15 ) Y7 )  )
( or ( <= ( + X7 93 ) X16 )  ( <= ( + X16 23 ) X7 )  ( <= ( + Y7 7 ) Y16 )  ( <= ( + Y16 27 ) Y7 )  )
( or ( <= ( + X7 93 ) X17 )  ( <= ( + X17 61 ) X7 )  ( <= ( + Y7 7 ) Y17 )  ( <= ( + Y17 97 ) Y7 )  )
( or ( <= ( + X8 56 ) X9 )  ( <= ( + X9 77 ) X8 )  ( <= ( + Y8 53 ) Y9 )  ( <= ( + Y9 91 ) Y8 )  )
( or ( <= ( + X8 56 ) X10 )  ( <= ( + X10 60 ) X8 )  ( <= ( + Y8 53 ) Y10 )  ( <= ( + Y10 61 ) Y8 )  )
( or ( <= ( + X8 56 ) X11 )  ( <= ( + X11 60 ) X8 )  ( <= ( + Y8 53 ) Y11 )  ( <= ( + Y11 53 ) Y8 )  )
( or ( <= ( + X8 56 ) X12 )  ( <= ( + X12 12 ) X8 )  ( <= ( + Y8 53 ) Y12 )  ( <= ( + Y12 74 ) Y8 )  )
( or ( <= ( + X8 56 ) X13 )  ( <= ( + X13 70 ) X8 )  ( <= ( + Y8 53 ) Y13 )  ( <= ( + Y13 33 ) Y8 )  )
( or ( <= ( + X8 56 ) X14 )  ( <= ( + X14 8 ) X8 )  ( <= ( + Y8 53 ) Y14 )  ( <= ( + Y14 56 ) Y8 )  )
( or ( <= ( + X8 56 ) X15 )  ( <= ( + X15 65 ) X8 )  ( <= ( + Y8 53 ) Y15 )  ( <= ( + Y15 15 ) Y8 )  )
( or ( <= ( + X8 56 ) X16 )  ( <= ( + X16 23 ) X8 )  ( <= ( + Y8 53 ) Y16 )  ( <= ( + Y16 27 ) Y8 )  )
( or ( <= ( + X8 56 ) X17 )  ( <= ( + X17 61 ) X8 )  ( <= ( + Y8 53 ) Y17 )  ( <= ( + Y17 97 ) Y8 )  )
( or ( <= ( + X9 77 ) X10 )  ( <= ( + X10 60 ) X9 )  ( <= ( + Y9 91 ) Y10 )  ( <= ( + Y10 61 ) Y9 )  )
( or ( <= ( + X9 77 ) X11 )  ( <= ( + X11 60 ) X9 )  ( <= ( + Y9 91 ) Y11 )  ( <= ( + Y11 53 ) Y9 )  )
( or ( <= ( + X9 77 ) X12 )  ( <= ( + X12 12 ) X9 )  ( <= ( + Y9 91 ) Y12 )  ( <= ( + Y12 74 ) Y9 )  )
( or ( <= ( + X9 77 ) X13 )  ( <= ( + X13 70 ) X9 )  ( <= ( + Y9 91 ) Y13 )  ( <= ( + Y13 33 ) Y9 )  )
( or ( <= ( + X9 77 ) X14 )  ( <= ( + X14 8 ) X9 )  ( <= ( + Y9 91 ) Y14 )  ( <= ( + Y14 56 ) Y9 )  )
( or ( <= ( + X9 77 ) X15 )  ( <= ( + X15 65 ) X9 )  ( <= ( + Y9 91 ) Y15 )  ( <= ( + Y15 15 ) Y9 )  )
( or ( <= ( + X9 77 ) X16 )  ( <= ( + X16 23 ) X9 )  ( <= ( + Y9 91 ) Y16 )  ( <= ( + Y16 27 ) Y9 )  )
( or ( <= ( + X9 77 ) X17 )  ( <= ( + X17 61 ) X9 )  ( <= ( + Y9 91 ) Y17 )  ( <= ( + Y17 97 ) Y9 )  )
( or ( <= ( + X10 60 ) X11 )  ( <= ( + X11 60 ) X10 )  ( <= ( + Y10 61 ) Y11 )  ( <= ( + Y11 53 ) Y10 )  )
( or ( <= ( + X10 60 ) X12 )  ( <= ( + X12 12 ) X10 )  ( <= ( + Y10 61 ) Y12 )  ( <= ( + Y12 74 ) Y10 )  )
( or ( <= ( + X10 60 ) X13 )  ( <= ( + X13 70 ) X10 )  ( <= ( + Y10 61 ) Y13 )  ( <= ( + Y13 33 ) Y10 )  )
( or ( <= ( + X10 60 ) X14 )  ( <= ( + X14 8 ) X10 )  ( <= ( + Y10 61 ) Y14 )  ( <= ( + Y14 56 ) Y10 )  )
( or ( <= ( + X10 60 ) X15 )  ( <= ( + X15 65 ) X10 )  ( <= ( + Y10 61 ) Y15 )  ( <= ( + Y15 15 ) Y10 )  )
( or ( <= ( + X10 60 ) X16 )  ( <= ( + X16 23 ) X10 )  ( <= ( + Y10 61 ) Y16 )  ( <= ( + Y16 27 ) Y10 )  )
( or ( <= ( + X10 60 ) X17 )  ( <= ( + X17 61 ) X10 )  ( <= ( + Y10 61 ) Y17 )  ( <= ( + Y17 97 ) Y10 )  )
( or ( <= ( + X11 60 ) X12 )  ( <= ( + X12 12 ) X11 )  ( <= ( + Y11 53 ) Y12 )  ( <= ( + Y12 74 ) Y11 )  )
( or ( <= ( + X11 60 ) X13 )  ( <= ( + X13 70 ) X11 )  ( <= ( + Y11 53 ) Y13 )  ( <= ( + Y13 33 ) Y11 )  )
( or ( <= ( + X11 60 ) X14 )  ( <= ( + X14 8 ) X11 )  ( <= ( + Y11 53 ) Y14 )  ( <= ( + Y14 56 ) Y11 )  )
( or ( <= ( + X11 60 ) X15 )  ( <= ( + X15 65 ) X11 )  ( <= ( + Y11 53 ) Y15 )  ( <= ( + Y15 15 ) Y11 )  )
( or ( <= ( + X11 60 ) X16 )  ( <= ( + X16 23 ) X11 )  ( <= ( + Y11 53 ) Y16 )  ( <= ( + Y16 27 ) Y11 )  )
( or ( <= ( + X11 60 ) X17 )  ( <= ( + X17 61 ) X11 )  ( <= ( + Y11 53 ) Y17 )  ( <= ( + Y17 97 ) Y11 )  )
( or ( <= ( + X12 12 ) X13 )  ( <= ( + X13 70 ) X12 )  ( <= ( + Y12 74 ) Y13 )  ( <= ( + Y13 33 ) Y12 )  )
( or ( <= ( + X12 12 ) X14 )  ( <= ( + X14 8 ) X12 )  ( <= ( + Y12 74 ) Y14 )  ( <= ( + Y14 56 ) Y12 )  )
( or ( <= ( + X12 12 ) X15 )  ( <= ( + X15 65 ) X12 )  ( <= ( + Y12 74 ) Y15 )  ( <= ( + Y15 15 ) Y12 )  )
( or ( <= ( + X12 12 ) X16 )  ( <= ( + X16 23 ) X12 )  ( <= ( + Y12 74 ) Y16 )  ( <= ( + Y16 27 ) Y12 )  )
( or ( <= ( + X12 12 ) X17 )  ( <= ( + X17 61 ) X12 )  ( <= ( + Y12 74 ) Y17 )  ( <= ( + Y17 97 ) Y12 )  )
( or ( <= ( + X13 70 ) X14 )  ( <= ( + X14 8 ) X13 )  ( <= ( + Y13 33 ) Y14 )  ( <= ( + Y14 56 ) Y13 )  )
( or ( <= ( + X13 70 ) X15 )  ( <= ( + X15 65 ) X13 )  ( <= ( + Y13 33 ) Y15 )  ( <= ( + Y15 15 ) Y13 )  )
( or ( <= ( + X13 70 ) X16 )  ( <= ( + X16 23 ) X13 )  ( <= ( + Y13 33 ) Y16 )  ( <= ( + Y16 27 ) Y13 )  )
( or ( <= ( + X13 70 ) X17 )  ( <= ( + X17 61 ) X13 )  ( <= ( + Y13 33 ) Y17 )  ( <= ( + Y17 97 ) Y13 )  )
( or ( <= ( + X14 8 ) X15 )  ( <= ( + X15 65 ) X14 )  ( <= ( + Y14 56 ) Y15 )  ( <= ( + Y15 15 ) Y14 )  )
( or ( <= ( + X14 8 ) X16 )  ( <= ( + X16 23 ) X14 )  ( <= ( + Y14 56 ) Y16 )  ( <= ( + Y16 27 ) Y14 )  )
( or ( <= ( + X14 8 ) X17 )  ( <= ( + X17 61 ) X14 )  ( <= ( + Y14 56 ) Y17 )  ( <= ( + Y17 97 ) Y14 )  )
( or ( <= ( + X15 65 ) X16 )  ( <= ( + X16 23 ) X15 )  ( <= ( + Y15 15 ) Y16 )  ( <= ( + Y16 27 ) Y15 )  )
( or ( <= ( + X15 65 ) X17 )  ( <= ( + X17 61 ) X15 )  ( <= ( + Y15 15 ) Y17 )  ( <= ( + Y17 97 ) Y15 )  )
( or ( <= ( + X16 23 ) X17 )  ( <= ( + X17 61 ) X16 )  ( <= ( + Y16 27 ) Y17 )  ( <= ( + Y17 97 ) Y16 )  )
( >= X0 0)
( <= ( + X0 21) Z)
( >= Y0 0)
( <= ( + Y0 24 ) 100)
( >= X1 0)
( <= ( + X1 4) Z)
( >= Y1 0)
( <= ( + Y1 77 ) 100)
( >= X2 0)
( <= ( + X2 90) Z)
( >= Y2 0)
( <= ( + Y2 44 ) 100)
( >= X3 0)
( <= ( + X3 43) Z)
( >= Y3 0)
( <= ( + Y3 6 ) 100)
( >= X4 0)
( <= ( + X4 42) Z)
( >= Y4 0)
( <= ( + Y4 7 ) 100)
( >= X5 0)
( <= ( + X5 26) Z)
( >= Y5 0)
( <= ( + Y5 13 ) 100)
( >= X6 0)
( <= ( + X6 98) Z)
( >= Y6 0)
( <= ( + Y6 34 ) 100)
( >= X7 0)
( <= ( + X7 93) Z)
( >= Y7 0)
( <= ( + Y7 7 ) 100)
( >= X8 0)
( <= ( + X8 56) Z)
( >= Y8 0)
( <= ( + Y8 53 ) 100)
( >= X9 0)
( <= ( + X9 77) Z)
( >= Y9 0)
( <= ( + Y9 91 ) 100)
( >= X10 0)
( <= ( + X10 60) Z)
( >= Y10 0)
( <= ( + Y10 61 ) 100)
( >= X11 0)
( <= ( + X11 60) Z)
( >= Y11 0)
( <= ( + Y11 53 ) 100)
( >= X12 0)
( <= ( + X12 12) Z)
( >= Y12 0)
( <= ( + Y12 74 ) 100)
( >= X13 0)
( <= ( + X13 70) Z)
( >= Y13 0)
( <= ( + Y13 33 ) 100)
( >= X14 0)
( <= ( + X14 8) Z)
( >= Y14 0)
( <= ( + Y14 56 ) 100)
( >= X15 0)
( <= ( + X15 65) Z)
( >= Y15 0)
( <= ( + Y15 15 ) 100)
( >= X16 0)
( <= ( + X16 23) Z)
( >= Y16 0)
( <= ( + Y16 27 ) 100)
( >= X17 0)
( <= ( + X17 61) Z)
( >= Y17 0)
( <= ( + Y17 97 ) 100)
) )
)(=> $phi $goal))))